70
1 0 25
2 0 20
2 1 39
3 0 39
3 1 34
3 2 50
4 0 3
4 1 31
4 2 24
4 3 37
5 0 48
5 1 39
5 2 37
5 3 8
5 4 4
6 0 38
6 1 31
6 2 50
6 3 27
6 4 40
6 5 46
7 0 1
7 1 20
7 2 36
7 3 35
7 4 26
7 5 45
7 6 3
8 0 48
8 1 42
8 2 24
8 3 34
8 4 38
8 5 17
8 6 3
8 7 43
9 0 15
9 1 46
9 2 19
9 3 16
9 4 30
9 5 36
9 6 41
9 7 4
9 8 43
10 0 33
10 1 11
10 2 27
10 3 31
10 4 7
10 5 43
10 6 38
10 7 17
10 8 48
10 9 17
11 0 23
11 1 4
11 2 5
11 3 48
11 4 10
11 5 10
11 6 5
11 7 8
11 8 8
11 9 24
11 10 16
12 0 43
12 1 49
12 2 49
12 3 49
12 4 41
12 5 40
12 6 27
12 7 46
12 8 21
12 9 31
12 10 32
12 11 34
13 0 21
13 1 17
13 2 14
13 3 47
13 4 27
13 5 11
13 6 46
13 7 33
13 8 6
13 9 33
13 10 29
13 11 33
13 12 2
14 0 28
14 1 41
14 2 49
14 3 34
14 4 23
14 5 49
14 6 28
14 7 27
14 8 19
14 9 12
14 10 13
14 11 3
14 12 14
14 13 46
15 0 42
15 1 20
15 2 48
15 3 26
15 4 39
15 5 22
15 6 22
15 7 7
15 8 36
15 9 16
15 10 43
15 11 16
15 12 13
15 13 4
15 14 12
16 0 32
16 1 13
16 2 15
16 3 9
16 4 14
16 5 32
16 6 42
16 7 40
16 8 36
16 9 39
16 10 7
16 11 40
16 12 1
16 13 33
16 14 24
16 15 17
17 0 29
17 1 14
17 2 15
17 3 7
17 4 3
17 5 25
17 6 25
17 7 3
17 8 5
17 9 44
17 10 16
17 11 46
17 12 47
17 13 7
17 14 49
17 15 22
17 16 3
18 0 31
18 1 29
18 2 27
18 3 16
18 4 37
18 5 36
18 6 14
18 7 27
18 8 12
18 9 34
18 10 19
18 11 11
18 12 39
18 13 26
18 14 44
18 15 43
18 16 9
18 17 4
19 0 28
19 1 14
19 2 16
19 3 41
19 4 5
19 5 32
19 6 35
19 7 17
19 8 48
19 9 13
19 10 42
19 11 16
19 12 39
19 13 19
19 14 9
19 15 39
19 16 26
19 17 20
19 18 16
20 0 48
20 1 35
20 2 11
20 3 25
20 4 31
20 5 29
20 6 1
20 7 43
20 8 6
20 9 49
20 10 6
20 11 31
20 12 22
20 13 50
20 14 7
20 15 28
20 16 46
20 17 11
20 18 18
20 19 15
21 0 17
21 1 44
21 2 13
21 3 49
21 4 40
21 5 45
21 6 19
21 7 44
21 8 16
21 9 9
21 10 2
21 11 34
21 12 16
21 13 22
21 14 40
21 15 21
21 16 14
21 17 9
21 18 15
21 19 29
21 20 5
22 0 41
22 1 7
22 2 33
22 3 17
22 4 19
22 5 45
22 6 13
22 7 3
22 8 30
22 9 20
22 10 24
22 11 43
22 12 35
22 13 42
22 14 5
22 15 36
22 16 23
22 17 19
22 18 7
22 19 24
22 20 42
22 21 17
23 0 18
23 1 47
23 2 25
23 3 2
23 4 2
23 5 10
23 6 50
23 7 5
23 8 5
23 9 29
23 10 31
23 11 22
23 12 15
23 13 15
23 14 41
23 15 27
23 16 7
23 17 32
23 18 46
23 19 36
23 20 36
23 21 16
23 22 30
24 0 11
24 1 33
24 2 19
24 3 9
24 4 37
24 5 35
24 6 44
24 7 42
24 8 14
24 9 48
24 10 42
24 11 11
24 12 39
24 13 24
24 14 30
24 15 49
24 16 47
24 17 45
24 18 20
24 19 22
24 20 38
24 21 15
24 22 43
24 23 19
25 0 8
25 1 22
25 2 34
25 3 12
25 4 30
25 5 3
25 6 27
25 7 36
25 8 19
25 9 44
25 10 25
25 11 27
25 12 10
25 13 32
25 14 42
25 15 26
25 16 9
25 17 4
25 18 17
25 19 17
25 20 18
25 21 43
25 22 38
25 23 49
25 24 14
26 0 33
26 1 25
26 2 12
26 3 22
26 4 10
26 5 47
26 6 6
26 7 20
26 8 44
26 9 4
26 10 46
26 11 3
26 12 46
26 13 7
26 14 6
26 15 18
26 16 32
26 17 31
26 18 44
26 19 14
26 20 7
26 21 38
26 22 4
26 23 5
26 24 15
26 25 17
27 0 43
27 1 50
27 2 10
27 3 20
27 4 37
27 5 47
27 6 10
27 7 17
27 8 33
27 9 43
27 10 6
27 11 17
27 12 45
27 13 43
27 14 26
27 15 8
27 16 27
27 17 11
27 18 7
27 19 41
27 20 36
27 21 41
27 22 23
27 23 22
27 24 7
27 25 40
27 26 24
28 0 31
28 1 27
28 2 11
28 3 45
28 4 44
28 5 44
28 6 16
28 7 17
28 8 8
28 9 39
28 10 23
28 11 22
28 12 15
28 13 48
28 14 38
28 15 35
28 16 1
28 17 18
28 18 21
28 19 35
28 20 1
28 21 39
28 22 34
28 23 37
28 24 48
28 25 4
28 26 16
28 27 17
29 0 19
29 1 44
29 2 5
29 3 48
29 4 14
29 5 29
29 6 16
29 7 50
29 8 24
29 9 31
29 10 30
29 11 40
29 12 47
29 13 13
29 14 26
29 15 9
29 16 5
29 17 50
29 18 39
29 19 5
29 20 31
29 21 38
29 22 38
29 23 49
29 24 47
29 25 15
29 26 50
29 27 1
29 28 41
30 0 24
30 1 38
30 2 32
30 3 41
30 4 10
30 5 31
30 6 37
30 7 49
30 8 28
30 9 3
30 10 15
30 11 25
30 12 12
30 13 12
30 14 37
30 15 14
30 16 48
30 17 19
30 18 6
30 19 10
30 20 50
30 21 36
30 22 37
30 23 39
30 24 46
30 25 36
30 26 46
30 27 36
30 28 38
30 29 5
31 0 11
31 1 7
31 2 32
31 3 42
31 4 5
31 5 31
31 6 25
31 7 9
31 8 39
31 9 32
31 10 14
31 11 26
31 12 50
31 13 32
31 14 38
31 15 11
31 16 42
31 17 44
31 18 6
31 19 13
31 20 36
31 21 8
31 22 31
31 23 3
31 24 16
31 25 30
31 26 8
31 27 34
31 28 7
31 29 13
31 30 28
32 0 29
32 1 33
32 2 19
32 3 40
32 4 19
32 5 31
32 6 24
32 7 29
32 8 25
32 9 37
32 10 20
32 11 49
32 12 25
32 13 41
32 14 12
32 15 1
32 16 21
32 17 11
32 18 45
32 19 18
32 20 36
32 21 4
32 22 8
32 23 35
32 24 16
32 25 36
32 26 3
32 27 5
32 28 50
32 29 6
32 30 39
32 31 45
33 0 11
33 1 25
33 2 14
33 3 24
33 4 41
33 5 13
33 6 16
33 7 19
33 8 26
33 9 46
33 10 43
33 11 11
33 12 1
33 13 38
33 14 41
33 15 25
33 16 6
33 17 16
33 18 21
33 19 34
33 20 5
33 21 45
33 22 15
33 23 15
33 24 22
33 25 43
33 26 17
33 27 37
33 28 21
33 29 9
33 30 18
33 31 28
33 32 18
34 0 35
34 1 5
34 2 27
34 3 28
34 4 4
34 5 38
34 6 50
34 7 40
34 8 5
34 9 34
34 10 40
34 11 32
34 12 6
34 13 16
34 14 16
34 15 14
34 16 41
34 17 41
34 18 9
34 19 48
34 20 18
34 21 50
34 22 26
34 23 12
34 24 31
34 25 16
34 26 8
34 27 22
34 28 14
34 29 14
34 30 46
34 31 14
34 32 46
34 33 9
35 0 45
35 1 17
35 2 5
35 3 23
35 4 26
35 5 50
35 6 25
35 7 41
35 8 32
35 9 46
35 10 17
35 11 34
35 12 3
35 13 6
35 14 29
35 15 10
35 16 7
35 17 21
35 18 2
35 19 27
35 20 22
35 21 42
35 22 39
35 23 47
35 24 29
35 25 39
35 26 4
35 27 19
35 28 40
35 29 30
35 30 19
35 31 12
35 32 31
35 33 36
35 34 8
36 0 29
36 1 50
36 2 12
36 3 34
36 4 2
36 5 37
36 6 40
36 7 46
36 8 6
36 9 37
36 10 15
36 11 25
36 12 40
36 13 42
36 14 28
36 15 38
36 16 14
36 17 1
36 18 46
36 19 45
36 20 31
36 21 12
36 22 35
36 23 34
36 24 31
36 25 18
36 26 37
36 27 44
36 28 44
36 29 35
36 30 25
36 31 42
36 32 6
36 33 15
36 34 24
36 35 20
37 0 12
37 1 50
37 2 2
37 3 19
37 4 30
37 5 33
37 6 29
37 7 22
37 8 18
37 9 24
37 10 46
37 11 31
37 12 11
37 13 50
37 14 18
37 15 11
37 16 32
37 17 10
37 18 27
37 19 33
37 20 16
37 21 1
37 22 16
37 23 30
37 24 43
37 25 1
37 26 50
37 27 21
37 28 19
37 29 2
37 30 1
37 31 31
37 32 49
37 33 9
37 34 30
37 35 3
37 36 10
38 0 18
38 1 1
38 2 6
38 3 29
38 4 5
38 5 40
38 6 39
38 7 17
38 8 43
38 9 21
38 10 28
38 11 29
38 12 21
38 13 50
38 14 45
38 15 35
38 16 21
38 17 24
38 18 2
38 19 32
38 20 12
38 21 31
38 22 35
38 23 17
38 24 23
38 25 38
38 26 15
38 27 36
38 28 43
38 29 50
38 30 7
38 31 28
38 32 24
38 33 24
38 34 2
38 35 24
38 36 25
38 37 35
39 0 20
39 1 49
39 2 32
39 3 16
39 4 14
39 5 37
39 6 26
39 7 28
39 8 29
39 9 8
39 10 11
39 11 20
39 12 46
39 13 34
39 14 37
39 15 5
39 16 48
39 17 6
39 18 20
39 19 38
39 20 18
39 21 19
39 22 11
39 23 42
39 24 21
39 25 12
39 26 37
39 27 1
39 28 20
39 29 43
39 30 3
39 31 40
39 32 29
39 33 15
39 34 43
39 35 27
39 36 6
39 37 23
39 38 37
40 0 49
40 1 47
40 2 39
40 3 4
40 4 32
40 5 6
40 6 47
40 7 23
40 8 5
40 9 41
40 10 13
40 11 6
40 12 28
40 13 30
40 14 33
40 15 2
40 16 6
40 17 20
40 18 10
40 19 37
40 20 16
40 21 47
40 22 32
40 23 38
40 24 13
40 25 13
40 26 35
40 27 27
40 28 12
40 29 7
40 30 33
40 31 43
40 32 32
40 33 17
40 34 36
40 35 29
40 36 27
40 37 26
40 38 9
40 39 43
41 0 20
41 1 12
41 2 15
41 3 13
41 4 29
41 5 28
41 6 24
41 7 28
41 8 33
41 9 49
41 10 6
41 11 48
41 12 50
41 13 48
41 14 16
41 15 3
41 16 33
41 17 4
41 18 6
41 19 47
41 20 36
41 21 30
41 22 5
41 23 6
41 24 45
41 25 2
41 26 29
41 27 3
41 28 34
41 29 49
41 30 25
41 31 41
41 32 25
41 33 16
41 34 2
41 35 37
41 36 28
41 37 25
41 38 17
41 39 23
41 40 26
42 0 28
42 1 43
42 2 30
42 3 9
42 4 6
42 5 18
42 6 35
42 7 22
42 8 18
42 9 29
42 10 28
42 11 39
42 12 47
42 13 46
42 14 2
42 15 29
42 16 12
42 17 40
42 18 29
42 19 12
42 20 12
42 21 28
42 22 25
42 23 44
42 24 14
42 25 50
42 26 31
42 27 48
42 28 11
42 29 41
42 30 32
42 31 21
42 32 41
42 33 43
42 34 27
42 35 35
42 36 18
42 37 31
42 38 38
42 39 14
42 40 46
42 41 25
43 0 4
43 1 7
43 2 29
43 3 47
43 4 22
43 5 20
43 6 42
43 7 8
43 8 41
43 9 21
43 10 36
43 11 11
43 12 17
43 13 25
43 14 14
43 15 43
43 16 7
43 17 19
43 18 50
43 19 45
43 20 14
43 21 3
43 22 32
43 23 27
43 24 11
43 25 35
43 26 45
43 27 35
43 28 23
43 29 25
43 30 2
43 31 6
43 32 9
43 33 42
43 34 45
43 35 7
43 36 13
43 37 13
43 38 23
43 39 3
43 40 46
43 41 42
43 42 28
44 0 37
44 1 42
44 2 8
44 3 22
44 4 39
44 5 20
44 6 45
44 7 26
44 8 18
44 9 28
44 10 35
44 11 3
44 12 33
44 13 27
44 14 46
44 15 1
44 16 20
44 17 7
44 18 24
44 19 19
44 20 47
44 21 23
44 22 32
44 23 7
44 24 2
44 25 25
44 26 36
44 27 14
44 28 2
44 29 26
44 30 47
44 31 23
44 32 15
44 33 30
44 34 46
44 35 35
44 36 46
44 37 26
44 38 28
44 39 40
44 40 14
44 41 39
44 42 18
44 43 7
45 0 42
45 1 39
45 2 6
45 3 3
45 4 6
45 5 3
45 6 3
45 7 42
45 8 4
45 9 22
45 10 24
45 11 12
45 12 2
45 13 6
45 14 23
45 15 49
45 16 5
45 17 27
45 18 22
45 19 31
45 20 18
45 21 5
45 22 24
45 23 33
45 24 38
45 25 17
45 26 39
45 27 50
45 28 18
45 29 4
45 30 19
45 31 47
45 32 43
45 33 24
45 34 26
45 35 13
45 36 12
45 37 23
45 38 47
45 39 26
45 40 35
45 41 16
45 42 40
45 43 42
45 44 50
46 0 50
46 1 29
46 2 32
46 3 7
46 4 6
46 5 34
46 6 28
46 7 4
46 8 36
46 9 33
46 10 29
46 11 26
46 12 23
46 13 32
46 14 21
46 15 17
46 16 23
46 17 38
46 18 13
46 19 5
46 20 20
46 21 10
46 22 37
46 23 30
46 24 15
46 25 5
46 26 27
46 27 24
46 28 2
46 29 50
46 30 8
46 31 22
46 32 37
46 33 3
46 34 32
46 35 20
46 36 30
46 37 2
46 38 9
46 39 38
46 40 29
46 41 37
46 42 13
46 43 30
46 44 3
46 45 23
47 0 20
47 1 21
47 2 32
47 3 29
47 4 38
47 5 48
47 6 19
47 7 24
47 8 15
47 9 38
47 10 15
47 11 11
47 12 2
47 13 44
47 14 1
47 15 42
47 16 42
47 17 4
47 18 31
47 19 8
47 20 27
47 21 40
47 22 14
47 23 18
47 24 25
47 25 9
47 26 20
47 27 41
47 28 44
47 29 47
47 30 44
47 31 2
47 32 8
47 33 36
47 34 49
47 35 20
47 36 35
47 37 13
47 38 12
47 39 16
47 40 23
47 41 28
47 42 39
47 43 2
47 44 3
47 45 34
47 46 13
48 0 42
48 1 47
48 2 11
48 3 27
48 4 43
48 5 3
48 6 20
48 7 25
48 8 19
48 9 34
48 10 2
48 11 28
48 12 20
48 13 1
48 14 23
48 15 2
48 16 11
48 17 39
48 18 27
48 19 19
48 20 34
48 21 47
48 22 33
48 23 37
48 24 39
48 25 12
48 26 23
48 27 28
48 28 39
48 29 21
48 30 16
48 31 2
48 32 35
48 33 38
48 34 6
48 35 45
48 36 11
48 37 46
48 38 38
48 39 21
48 40 3
48 41 44
48 42 21
48 43 43
48 44 30
48 45 24
48 46 25
48 47 3
49 0 8
49 1 3
49 2 46
49 3 9
49 4 8
49 5 39
49 6 49
49 7 21
49 8 19
49 9 9
49 10 46
49 11 44
49 12 30
49 13 31
49 14 16
49 15 1
49 16 34
49 17 42
49 18 21
49 19 25
49 20 38
49 21 38
49 22 21
49 23 47
49 24 4
49 25 8
49 26 2
49 27 24
49 28 33
49 29 11
49 30 6
49 31 32
49 32 40
49 33 22
49 34 50
49 35 5
49 36 15
49 37 47
49 38 38
49 39 28
49 40 26
49 41 5
49 42 44
49 43 18
49 44 47
49 45 40
49 46 33
49 47 50
49 48 50
50 0 38
50 1 28
50 2 19
50 3 48
50 4 3
50 5 9
50 6 33
50 7 8
50 8 23
50 9 42
50 10 44
50 11 15
50 12 13
50 13 30
50 14 33
50 15 16
50 16 46
50 17 18
50 18 4
50 19 34
50 20 20
50 21 26
50 22 2
50 23 43
50 24 10
50 25 4
50 26 41
50 27 47
50 28 29
50 29 14
50 30 43
50 31 16
50 32 8
50 33 7
50 34 45
50 35 29
50 36 2
50 37 33
50 38 39
50 39 26
50 40 18
50 41 13
50 42 36
50 43 12
50 44 29
50 45 40
50 46 2
50 47 20
50 48 48
50 49 24
51 0 14
51 1 17
51 2 16
51 3 13
51 4 16
51 5 41
51 6 39
51 7 27
51 8 11
51 9 45
51 10 2
51 11 17
51 12 28
51 13 3
51 14 26
51 15 20
51 16 24
51 17 5
51 18 28
51 19 31
51 20 46
51 21 16
51 22 8
51 23 36
51 24 39
51 25 21
51 26 1
51 27 31
51 28 35
51 29 39
51 30 18
51 31 10
51 32 44
51 33 16
51 34 1
51 35 42
51 36 11
51 37 42
51 38 14
51 39 44
51 40 30
51 41 30
51 42 27
51 43 38
51 44 46
51 45 42
51 46 10
51 47 29
51 48 28
51 49 8
51 50 3
52 0 16
52 1 7
52 2 48
52 3 31
52 4 49
52 5 40
52 6 28
52 7 12
52 8 16
52 9 18
52 10 30
52 11 10
52 12 1
52 13 3
52 14 47
52 15 37
52 16 17
52 17 49
52 18 46
52 19 5
52 20 44
52 21 46
52 22 38
52 23 35
52 24 28
52 25 29
52 26 45
52 27 13
52 28 16
52 29 26
52 30 46
52 31 20
52 32 2
52 33 40
52 34 29
52 35 1
52 36 28
52 37 23
52 38 25
52 39 28
52 40 50
52 41 28
52 42 39
52 43 36
52 44 27
52 45 46
52 46 13
52 47 35
52 48 27
52 49 3
52 50 46
52 51 27
53 0 34
53 1 1
53 2 23
53 3 14
53 4 13
53 5 47
53 6 23
53 7 17
53 8 3
53 9 32
53 10 21
53 11 41
53 12 21
53 13 22
53 14 22
53 15 48
53 16 9
53 17 13
53 18 31
53 19 43
53 20 50
53 21 26
53 22 24
53 23 14
53 24 47
53 25 15
53 26 25
53 27 46
53 28 15
53 29 2
53 30 4
53 31 36
53 32 18
53 33 25
53 34 24
53 35 3
53 36 16
53 37 50
53 38 10
53 39 33
53 40 26
53 41 42
53 42 5
53 43 42
53 44 42
53 45 34
53 46 14
53 47 14
53 48 4
53 49 18
53 50 14
53 51 29
53 52 12
54 0 50
54 1 24
54 2 8
54 3 14
54 4 38
54 5 19
54 6 5
54 7 45
54 8 30
54 9 15
54 10 23
54 11 13
54 12 34
54 13 40
54 14 40
54 15 27
54 16 15
54 17 30
54 18 44
54 19 49
54 20 38
54 21 9
54 22 6
54 23 46
54 24 12
54 25 40
54 26 50
54 27 28
54 28 33
54 29 6
54 30 27
54 31 36
54 32 16
54 33 28
54 34 29
54 35 49
54 36 24
54 37 32
54 38 33
54 39 30
54 40 20
54 41 33
54 42 12
54 43 20
54 44 19
54 45 45
54 46 6
54 47 21
54 48 42
54 49 19
54 50 50
54 51 41
54 52 30
54 53 47
55 0 24
55 1 41
55 2 34
55 3 2
55 4 12
55 5 11
55 6 24
55 7 30
55 8 41
55 9 42
55 10 6
55 11 48
55 12 28
55 13 8
55 14 6
55 15 16
55 16 22
55 17 43
55 18 48
55 19 36
55 20 50
55 21 46
55 22 50
55 23 14
55 24 18
55 25 32
55 26 49
55 27 44
55 28 12
55 29 42
55 30 50
55 31 16
55 32 32
55 33 36
55 34 21
55 35 37
55 36 3
55 37 27
55 38 33
55 39 16
55 40 39
55 41 44
55 42 21
55 43 38
55 44 39
55 45 9
55 46 40
55 47 14
55 48 42
55 49 45
55 50 27
55 51 3
55 52 8
55 53 20
55 54 12
56 0 38
56 1 28
56 2 21
56 3 15
56 4 26
56 5 1
56 6 34
56 7 48
56 8 8
56 9 14
56 10 10
56 11 30
56 12 41
56 13 20
56 14 8
56 15 17
56 16 23
56 17 44
56 18 18
56 19 20
56 20 13
56 21 29
56 22 42
56 23 46
56 24 26
56 25 27
56 26 50
56 27 8
56 28 27
56 29 22
56 30 19
56 31 9
56 32 47
56 33 16
56 34 46
56 35 29
56 36 6
56 37 40
56 38 12
56 39 40
56 40 37
56 41 42
56 42 31
56 43 2
56 44 37
56 45 2
56 46 15
56 47 47
56 48 8
56 49 31
56 50 22
56 51 19
56 52 23
56 53 40
56 54 48
56 55 6
57 0 30
57 1 24
57 2 49
57 3 19
57 4 39
57 5 43
57 6 35
57 7 3
57 8 32
57 9 38
57 10 34
57 11 33
57 12 19
57 13 1
57 14 5
57 15 49
57 16 2
57 17 26
57 18 29
57 19 3
57 20 46
57 21 21
57 22 13
57 23 2
57 24 47
57 25 20
57 26 18
57 27 34
57 28 19
57 29 35
57 30 36
57 31 11
57 32 5
57 33 39
57 34 29
57 35 14
57 36 30
57 37 25
57 38 46
57 39 13
57 40 11
57 41 18
57 42 50
57 43 16
57 44 15
57 45 49
57 46 44
57 47 4
57 48 14
57 49 3
57 50 15
57 51 23
57 52 6
57 53 29
57 54 35
57 55 13
57 56 8
58 0 25
58 1 43
58 2 29
58 3 26
58 4 43
58 5 3
58 6 50
58 7 49
58 8 30
58 9 42
58 10 17
58 11 18
58 12 30
58 13 34
58 14 6
58 15 3
58 16 44
58 17 17
58 18 14
58 19 23
58 20 39
58 21 36
58 22 32
58 23 15
58 24 40
58 25 50
58 26 19
58 27 46
58 28 3
58 29 7
58 30 11
58 31 15
58 32 47
58 33 25
58 34 8
58 35 12
58 36 6
58 37 7
58 38 13
58 39 1
58 40 6
58 41 26
58 42 18
58 43 20
58 44 14
58 45 10
58 46 1
58 47 45
58 48 14
58 49 39
58 50 1
58 51 31
58 52 10
58 53 29
58 54 8
58 55 44
58 56 22
58 57 19
59 0 12
59 1 2
59 2 43
59 3 17
59 4 20
59 5 25
59 6 19
59 7 8
59 8 14
59 9 10
59 10 21
59 11 31
59 12 31
59 13 6
59 14 19
59 15 28
59 16 17
59 17 22
59 18 28
59 19 30
59 20 2
59 21 18
59 22 34
59 23 17
59 24 35
59 25 46
59 26 32
59 27 38
59 28 44
59 29 12
59 30 3
59 31 46
59 32 31
59 33 38
59 34 13
59 35 34
59 36 4
59 37 44
59 38 1
59 39 20
59 40 21
59 41 35
59 42 41
59 43 12
59 44 24
59 45 46
59 46 8
59 47 19
59 48 20
59 49 48
59 50 13
59 51 20
59 52 4
59 53 9
59 54 8
59 55 24
59 56 6
59 57 23
59 58 48
60 0 11
60 1 40
60 2 20
60 3 48
60 4 19
60 5 9
60 6 20
60 7 39
60 8 28
60 9 11
60 10 50
60 11 30
60 12 44
60 13 31
60 14 10
60 15 12
60 16 4
60 17 44
60 18 47
60 19 50
60 20 21
60 21 37
60 22 33
60 23 41
60 24 40
60 25 33
60 26 40
60 27 36
60 28 20
60 29 27
60 30 30
60 31 22
60 32 2
60 33 26
60 34 30
60 35 30
60 36 8
60 37 29
60 38 32
60 39 5
60 40 44
60 41 18
60 42 10
60 43 7
60 44 39
60 45 19
60 46 30
60 47 27
60 48 1
60 49 24
60 50 11
60 51 50
60 52 21
60 53 23
60 54 43
60 55 17
60 56 9
60 57 44
60 58 30
60 59 11
61 0 28
61 1 34
61 2 21
61 3 35
61 4 40
61 5 9
61 6 37
61 7 23
61 8 37
61 9 17
61 10 50
61 11 44
61 12 19
61 13 30
61 14 4
61 15 50
61 16 7
61 17 28
61 18 35
61 19 16
61 20 11
61 21 19
61 22 30
61 23 39
61 24 45
61 25 24
61 26 41
61 27 17
61 28 25
61 29 11
61 30 24
61 31 11
61 32 1
61 33 26
61 34 3
61 35 27
61 36 49
61 37 17
61 38 34
61 39 1
61 40 50
61 41 39
61 42 7
61 43 38
61 44 4
61 45 19
61 46 43
61 47 36
61 48 18
61 49 17
61 50 33
61 51 42
61 52 18
61 53 3
61 54 7
61 55 19
61 56 27
61 57 25
61 58 13
61 59 40
61 60 33
62 0 31
62 1 6
62 2 47
62 3 41
62 4 18
62 5 12
62 6 47
62 7 20
62 8 45
62 9 40
62 10 29
62 11 39
62 12 49
62 13 20
62 14 14
62 15 30
62 16 26
62 17 41
62 18 45
62 19 27
62 20 50
62 21 15
62 22 48
62 23 11
62 24 17
62 25 28
62 26 7
62 27 29
62 28 44
62 29 35
62 30 49
62 31 48
62 32 10
62 33 22
62 34 6
62 35 24
62 36 26
62 37 27
62 38 42
62 39 30
62 40 2
62 41 13
62 42 12
62 43 7
62 44 27
62 45 6
62 46 33
62 47 37
62 48 50
62 49 33
62 50 8
62 51 46
62 52 48
62 53 30
62 54 50
62 55 47
62 56 9
62 57 30
62 58 31
62 59 14
62 60 27
62 61 44
63 0 17
63 1 22
63 2 16
63 3 2
63 4 50
63 5 15
63 6 22
63 7 45
63 8 10
63 9 12
63 10 1
63 11 24
63 12 40
63 13 40
63 14 32
63 15 1
63 16 41
63 17 36
63 18 48
63 19 46
63 20 1
63 21 13
63 22 31
63 23 1
63 24 35
63 25 28
63 26 34
63 27 24
63 28 26
63 29 12
63 30 43
63 31 10
63 32 24
63 33 19
63 34 20
63 35 27
63 36 4
63 37 43
63 38 24
63 39 49
63 40 37
63 41 26
63 42 11
63 43 30
63 44 29
63 45 32
63 46 43
63 47 37
63 48 13
63 49 32
63 50 29
63 51 22
63 52 41
63 53 12
63 54 14
63 55 2
63 56 4
63 57 15
63 58 48
63 59 14
63 60 30
63 61 43
63 62 28
64 0 2
64 1 1
64 2 29
64 3 41
64 4 3
64 5 12
64 6 18
64 7 42
64 8 29
64 9 50
64 10 30
64 11 49
64 12 36
64 13 21
64 14 48
64 15 4
64 16 4
64 17 48
64 18 46
64 19 49
64 20 35
64 21 30
64 22 48
64 23 1
64 24 19
64 25 19
64 26 5
64 27 1
64 28 16
64 29 25
64 30 39
64 31 36
64 32 14
64 33 25
64 34 46
64 35 45
64 36 28
64 37 23
64 38 1
64 39 24
64 40 1
64 41 8
64 42 49
64 43 23
64 44 25
64 45 30
64 46 50
64 47 24
64 48 27
64 49 12
64 50 35
64 51 5
64 52 12
64 53 1
64 54 10
64 55 34
64 56 28
64 57 47
64 58 43
64 59 36
64 60 32
64 61 39
64 62 10
64 63 28
65 0 30
65 1 15
65 2 32
65 3 36
65 4 14
65 5 39
65 6 30
65 7 3
65 8 29
65 9 46
65 10 44
65 11 33
65 12 21
65 13 32
65 14 15
65 15 16
65 16 31
65 17 39
65 18 9
65 19 34
65 20 5
65 21 15
65 22 45
65 23 32
65 24 13
65 25 5
65 26 1
65 27 31
65 28 15
65 29 36
65 30 16
65 31 18
65 32 48
65 33 29
65 34 39
65 35 6
65 36 7
65 37 14
65 38 31
65 39 37
65 40 47
65 41 27
65 42 38
65 43 12
65 44 13
65 45 14
65 46 7
65 47 46
65 48 16
65 49 20
65 50 5
65 51 4
65 52 10
65 53 2
65 54 31
65 55 45
65 56 35
65 57 8
65 58 43
65 59 47
65 60 44
65 61 12
65 62 40
65 63 23
65 64 49
66 0 4
66 1 30
66 2 24
66 3 8
66 4 45
66 5 47
66 6 11
66 7 24
66 8 28
66 9 28
66 10 21
66 11 25
66 12 20
66 13 43
66 14 29
66 15 23
66 16 3
66 17 7
66 18 12
66 19 37
66 20 11
66 21 42
66 22 41
66 23 4
66 24 11
66 25 45
66 26 22
66 27 42
66 28 44
66 29 5
66 30 4
66 31 16
66 32 8
66 33 2
66 34 37
66 35 40
66 36 19
66 37 4
66 38 28
66 39 39
66 40 43
66 41 14
66 42 47
66 43 34
66 44 44
66 45 19
66 46 21
66 47 10
66 48 34
66 49 14
66 50 28
66 51 31
66 52 4
66 53 22
66 54 4
66 55 47
66 56 6
66 57 19
66 58 15
66 59 47
66 60 31
66 61 44
66 62 12
66 63 9
66 64 31
66 65 50
67 0 14
67 1 25
67 2 6
67 3 30
67 4 4
67 5 49
67 6 24
67 7 12
67 8 47
67 9 44
67 10 27
67 11 25
67 12 17
67 13 16
67 14 9
67 15 11
67 16 42
67 17 41
67 18 50
67 19 5
67 20 34
67 21 31
67 22 19
67 23 30
67 24 5
67 25 32
67 26 40
67 27 25
67 28 35
67 29 27
67 30 30
67 31 42
67 32 40
67 33 48
67 34 9
67 35 31
67 36 17
67 37 11
67 38 30
67 39 28
67 40 44
67 41 3
67 42 1
67 43 22
67 44 47
67 45 33
67 46 9
67 47 41
67 48 8
67 49 43
67 50 19
67 51 31
67 52 35
67 53 32
67 54 50
67 55 19
67 56 32
67 57 27
67 58 6
67 59 16
67 60 42
67 61 37
67 62 28
67 63 38
67 64 10
67 65 28
67 66 6
68 0 4
68 1 49
68 2 1
68 3 17
68 4 29
68 5 22
68 6 25
68 7 35
68 8 4
68 9 17
68 10 32
68 11 8
68 12 25
68 13 38
68 14 8
68 15 31
68 16 24
68 17 15
68 18 6
68 19 24
68 20 20
68 21 46
68 22 36
68 23 19
68 24 7
68 25 28
68 26 41
68 27 5
68 28 11
68 29 29
68 30 44
68 31 45
68 32 12
68 33 32
68 34 35
68 35 39
68 36 11
68 37 18
68 38 10
68 39 30
68 40 24
68 41 10
68 42 24
68 43 7
68 44 31
68 45 1
68 46 24
68 47 2
68 48 6
68 49 30
68 50 9
68 51 34
68 52 32
68 53 49
68 54 8
68 55 28
68 56 32
68 57 10
68 58 42
68 59 48
68 60 17
68 61 2
68 62 47
68 63 41
68 64 5
68 65 44
68 66 37
68 67 38
69 0 20
69 1 24
69 2 14
69 3 17
69 4 13
69 5 27
69 6 37
69 7 36
69 8 43
69 9 15
69 10 14
69 11 32
69 12 20
69 13 29
69 14 16
69 15 36
69 16 42
69 17 44
69 18 12
69 19 29
69 20 36
69 21 22
69 22 23
69 23 41
69 24 14
69 25 34
69 26 37
69 27 22
69 28 38
69 29 5
69 30 13
69 31 45
69 32 24
69 33 27
69 34 21
69 35 48
69 36 2
69 37 33
69 38 36
69 39 46
69 40 35
69 41 44
69 42 8
69 43 9
69 44 49
69 45 50
69 46 43
69 47 44
69 48 41
69 49 26
69 50 1
69 51 16
69 52 1
69 53 11
69 54 8
69 55 14
69 56 33
69 57 22
69 58 30
69 59 19
69 60 39
69 61 19
69 62 20
69 63 21
69 64 29
69 65 6
69 66 10
69 67 41
69 68 37
